; Copyright (c) 2026 The RIINA Authors. All rights reserved.
; Auto-generated from 02_FORMAL/coq/effects/EffectGate.v (1 validations)
; Generated by scripts/generate-full-stack.py
;
; Translation Validation for EffectGate
; Layer 9: Verifies compiler backend preserves formal semantics.
; Each assertion checks source IR ≡ target code for a proven property.

(set-logic QF_LIA)
(set-option :produce-models true)

; IR node representation
(declare-sort IRNode 0)
(declare-sort TargetNode 0)

; is_gate: source semantics (matches Coq)
(declare-fun source_is_gate () Bool)
(declare-fun target_is_gate () Bool)
(assert (= source_is_gate target_is_gate))

; gate_enforcement: translation preserves property (matches Coq: Theorem)
(declare-fun source_gate_enforcement () Bool)
(declare-fun target_gate_enforcement () Bool)
(assert (= source_gate_enforcement target_gate_enforcement))

; Verify all translation validations are satisfiable
(check-sat)
(exit)
